p cnf 55 54
-3 0
-5 0
-7 0
-9 0
-11 0
-13 0
-15 0
-17 0
-19 0
-21 0
-25 0
-41 0
-45 0
-67 0
-69 0
-83 0
-85 0
-87 0
-91 0
-93 0
-95 0
-101 0
-123 0
-125 0
-149 0
-153 0
-155 0
-159 0
-161 0
-163 0
-165 0
-173 0
-175 0
-177 0
-179 0
-181 0
-185 0
-191 0
-1 -343 0
-695 0
-697 0
-699 0
-701 0
-703 0
-705 0
-711 0
-715 0
-717 0
-719 0
-721 0
-723 0
-725 0
-727 0
-729 0
